16 32
1 2 2
1 5 5
2 3 2
2 6 3
3 4 1
3 7 2
4 8 3
5 6 3
5 9 4
6 7 5
6 10 5
7 8 3
7 11 3
8 12 4
9 10 5
9 13 2
10 11 1
10 14 2
11 12 2
11 15 4
12 16 1
13 14 1
14 15 3
15 16 2
1 13 4
2 14 1
3 15 2
4 16 5
1 4 1
5 8 4
9 12 4
13 16 3
